Solver command line: ['C:\\Program Files\\IBM\\ILOG\\CPLEX_Studio2211\\cplex\\bin\\x64_win64\\cplex.exe']


Welcome to IBM(R) ILOG(R) CPLEX(R) Interactive Optimizer 22.1.1.0
  with Simplex, Mixed Integer & Barrier Optimizers
5725-A06 5725-A29 5724-Y48 5724-Y49 5724-Y54 5724-Y55 5655-Y21
Copyright IBM Corp. 1988, 2022.  All Rights Reserved.

Type 'help' for a list of available commands.
Type 'help' followed by a command name for more
information on commands.

CPLEX> Logfile 'cplex.log' closed.
Logfile 'C:\Users\wangy\Documents\GitHub\re_optimization\result_site_specific\tmp93yrg83b.cplex.log' open.
CPLEX> Problem 'C:\Users\wangy\Documents\GitHub\re_optimization\result_site_specific\tmp_a658z6c.pyomo.lp' read.
Read time = 0.30 sec. (7.98 ticks)
CPLEX> Problem name         : C:\Users\wangy\Documents\GitHub\re_optimization\result_site_specific\tmp_a658z6c.pyomo.lp
Objective sense      : Minimize
Variables            :   56997  [Nneg: 30685,  Free: 4406,  Binary: 6,
                                 Other: 21900]
Objective nonzeros   :      14
Linear constraints   :   78893  [Less: 42355,  Greater: 5,  Equal: 36533]
  Nonzeros           :  198753
  RHS nonzeros       :    3716

Variables            : Min LB: 0.000000         Max UB: 1.000000       
Objective nonzeros   : Min   : 1.000000         Max   : 1.000000       
Linear constraints   :
  Nonzeros           : Min   : 0.001737397      Max   : 100000.0       
  RHS nonzeros       : Min   : 0.09400000       Max   : 100000.0       
CPLEX> Version identifier: 22.1.1.0 | 2022-11-27 | 9160aff4d
Tried aggregator 3 times.
MIP Presolve eliminated 46213 rows and 25771 columns.
Aggregator did 10659 substitutions.
Reduced MIP has 22021 rows, 20567 columns, and 66196 nonzeros.
Reduced MIP has 2 binaries, 0 generals, 0 SOSs, and 0 indicators.
Presolve time = 0.20 sec. (206.56 ticks)
Found incumbent of value 291052.934362 after 0.36 sec. (309.17 ticks)
Probing time = 0.00 sec. (1.14 ticks)
Tried aggregator 1 time.
Detecting symmetries...
MIP Presolve eliminated 1 rows and 0 columns.
Reduced MIP has 22020 rows, 20567 columns, and 66194 nonzeros.
Reduced MIP has 2 binaries, 0 generals, 0 SOSs, and 0 indicators.
Presolve time = 0.05 sec. (42.31 ticks)
Probing time = 0.01 sec. (1.08 ticks)
MIP emphasis: balance optimality and feasibility.
MIP search method: dynamic search.
Parallel mode: deterministic, using up to 16 threads.
Root relaxation solution time = 1.42 sec. (698.85 ticks)

        Nodes                                         Cuts/
   Node  Left     Objective  IInf  Best Integer    Best Bound    ItCnt     Gap

*     0+    0                       291052.9344    -9259.0176           103.18%
      0     0     6446.2032     1   291052.9344     6446.2032       57   97.79%
*     0+    0                         8050.9118     6446.2032            19.93%
*     0+    0                         6896.8997     6446.2032             6.53%
      0     0        cutoff           6896.8997                    421    0.00%
Elapsed time = 2.19 sec. (1428.47 ticks, tree = 0.01 MB, solutions = 3)

Root node processing (before b&c):
  Real time             =    2.20 sec. (1431.25 ticks)
Parallel b&c, 16 threads:
  Real time             =    0.00 sec. (0.00 ticks)
  Sync time (average)   =    0.00 sec.
  Wait time (average)   =    0.00 sec.
                          ------------
Total (root+branch&cut) =    2.20 sec. (1431.25 ticks)

Solution pool: 3 solutions saved.

MIP - Integer optimal solution:  Objective =  6.8968996714e+03
Solution time =    2.20 sec.  Iterations = 421  Nodes = 0
Deterministic time = 1431.41 ticks  (649.76 ticks/sec)

CPLEX> Incumbent solution written to file 'C:\Users\wangy\Documents\GitHub\re_optimization\result_site_specific\tmpjziqw8gl.cplex.sol'.
CPLEX> 
